SCIP Status        : solving was interrupted [time limit reached]
Total Time         :    3600.05
  solving          :    3600.00
  presolving       :       2.34 (included in solving)
  reading          :       0.05
  copying          :       0.28 (12 #copies) (minimal 0.01, maximal 0.04, average 0.02)
Original Problem   :
  Problem name     : hadamard_7
  Variables        : 50 (0 binary, 49 integer, 0 implicit integer, 1 continuous)
  Constraints      : 1 initial, 1 maximal
  Objective        : maximize, 1 non-zeros (abs.min = 1, abs.max = 1)
Presolved Problem  :
  Problem name     : t_hadamard_7
  Variables        : 5090 (49 binary, 0 integer, 5040 implicit integer, 1 continuous)
  Constraints      : 7908 initial, 7933 maximal
  Objective        : minimize, 1 non-zeros (abs.min = 1, abs.max = 1)
  Nonzeros         : 61003 constraint, 134 clique table
Presolvers         :   ExecTime  SetupTime  Calls  FixedVars   AggrVars   ChgTypes  ChgBounds   AddHoles    DelCons    AddCons   ChgSides   ChgCoefs
  boundshift       :       0.00       0.00      0          0          0          0          0          0          0          0          0          0
  convertinttobin  :       0.00       0.00      0          0          0          0          0          0          0          0          0          0
  domcol           :       0.00       0.00      3          0          0          0          0          0          0          0          0          0
  dualagg          :       0.00       0.00      0          0          0          0          0          0          0          0          0          0
  dualcomp         :       0.00       0.00      3          0          0          0          0          0          0          0          0          0
  dualinfer        :       0.00       0.00      0          0          0          0          0          0          0          0          0          0
  dualsparsify     :       0.00       0.00      2          0          0          0          0          0          0          0          0          0
  gateextraction   :       0.01       0.00      3          0          0          0          0          0          0          0          0          0
  implics          :       0.00       0.00      7          0          0          0          0          0          0          0          0          0
  inttobinary      :       0.00       0.00      0          0          0          0          0          0          0          0          0          0
  qpkktref         :       0.00       0.00      0          0          0          0          0          0          0          0          0          0
  redvub           :       0.00       0.00      0          0          0          0          0          0          0          0          0          0
  sparsify         :       0.00       0.00      1          0          0          0          0          0          0          0          0          0
  stuffing         :       0.00       0.00      0          0          0          0          0          0          0          0          0          0
  trivial          :       0.00       0.00      9          0          0          0          0          0          0          0          0          0
  tworowbnd        :       0.00       0.00      0          0          0          0          0          0          0          0          0          0
  dualfix          :       0.00       0.00      9          0          0          0          0          0          0          0          0          0
  genvbounds       :       0.00       0.00      0          0          0          0          0          0          0          0          0          0
  probing          :       1.26       0.00      1          0          0          0          0          0          0          0          0          0
  pseudoobj        :       0.00       0.00      2          0          0          0          1          0          0          0          0          0
  symmetry         :       0.50       0.00      1          0          0          0          0          0          0       2526          0          0
  vbounds          :       0.00       0.00      2          0          0          0          0          0          0          0          0          0
  knapsack         :       0.00       0.00      6          0          0          0          0          0          0          0          0          0
  setppc           :       0.01       0.00     12          0          0          0          0          0          0          0          0          0
  and              :       0.07       0.00     12          0          0          0          0          0          0          0          0          0
  linear           :       0.03       0.00     12          0          0          0          0          0          0          0          0          0
  logicor          :       0.02       0.00      8          0          0          0          0          0         16          0          0         26
  nonlinear        :       0.41       0.00      5          0          0          0          1          0          0       5040          0          0
  benders          :       0.00       0.00      0          0          0          0          0          0          0          0          0          0
  components       :       0.01       0.00      2          0          0          0          0          0          0          0          0          0
  root node        :          -          -      -          0          -          -         16          -          -          -          -          -
Constraints        :     Number  MaxNumber  #Separate #Propagate    #EnfoLP    #EnfoRelax  #EnfoPS    #Check   #ResProp    Cutoffs    DomReds       Cuts    Applied      Conss   Children
  benderslp        :          0          0          0          0       5975          0          0       1395          0          0          0          0          0          0          0
  integral         :          0          0          0          0       5975          0          0       1395          0          0        906          0          0          0      11930
  knapsack         :         31         31         11       3101          0          0          0          0          0          0          0         80          1          0          0
  setppc           :       2542       2542         43      31644          0          0          0       1388       3195          0     541338         55         42          0          0
  and              :       5040       5040      11798      84584          0          0          0       1248     550813        867    2002688    1032703     163650          0          0
  linear           :         10         10         43      83699          0          0          0         11        245       2710       2704          0          0          0          0
  logicor          :        285+       310         11      31095          0          0          0          0        760         10       1702        238         20          0          0
  benders          :          0          0          0          0          0          0          0         14          0          0          0          0          0          0          0
  countsols        :          0          0          0          0          0          0          0         14          0          0          0          0          0          0          0
  components       :          0          0          0          0          0          0          0          0          0          0          0          0          0          0          0
Constraint Timings :  TotalTime  SetupTime   Separate  Propagate     EnfoLP     EnfoPS     EnfoRelax   Check    ResProp    SB-Prop
  benderslp        :       0.00       0.00       0.00       0.00       0.00       0.00       0.00       0.00       0.00       0.00
  integral         :     116.65       0.00       0.00       0.00     116.65       0.00       0.00       0.00       0.00       0.00
  knapsack         :       0.05       0.00       0.02       0.01       0.00       0.00       0.00       0.00       0.00       0.01
  setppc           :       2.43       0.00       0.03       1.29       0.00       0.00       0.00       0.91       0.00       0.18
  and              :      60.29       0.00      37.48      21.72       0.00       0.00       0.00       0.13       0.20       0.75
  linear           :       3.23       0.00       0.41       2.52       0.00       0.00       0.00       0.00       0.27       0.03
  logicor          :       0.57       0.00       0.00       0.56       0.00       0.00       0.00       0.00       0.00       0.01
  benders          :       0.00       0.00       0.00       0.00       0.00       0.00       0.00       0.00       0.00       0.00
  countsols        :       0.00       0.00       0.00       0.00       0.00       0.00       0.00       0.00       0.00       0.00
  components       :       0.01       0.00       0.00       0.01       0.00       0.00       0.00       0.00       0.00       0.00
Propagators        : #Propagate   #ResProp    Cutoffs    DomReds
  dualfix          :          3          0          0          0
  genvbounds       :          0          0          0          0
  nlobbt           :          0          0          0          0
  obbt             :          0          0          0          0
  probing          :          0          0          0          0
  pseudoobj        :      17987          0          0         16
  redcost          :      18129          0          0          0
  rootredcost      :          8          0          0          0
  symmetry         :       5973          0          0          0
  vbounds          :       9068          0          0          0
Propagator Timings :  TotalTime  SetupTime   Presolve  Propagate    ResProp    SB-Prop
  dualfix          :       0.00       0.00       0.00       0.00       0.00       0.00
  genvbounds       :       0.03       0.00       0.00       0.03       0.00       0.00
  nlobbt           :       0.00       0.00       0.00       0.00       0.00       0.00
  obbt             :       0.00       0.00       0.00       0.00       0.00       0.00
  probing          :       1.26       0.00       1.26       0.00       0.00       0.00
  pseudoobj        :       0.04       0.00       0.00       0.04       0.00       0.00
  redcost          :       5.09       0.00       0.00       5.09       0.00       0.00
  rootredcost      :       0.03       0.00       0.00       0.03       0.00       0.00
  symmetry         :       0.60       0.00       0.50       0.10       0.00       0.00
  vbounds          :       0.05       0.00       0.00       0.05       0.00       0.00
Orbital fixing     :
  vars fixed to 0  :          0
  vars fixed to 1  :          0
Conflict Analysis  :       Time      Calls    Success    DomReds  Conflicts   Literals    Reconvs ReconvLits   Dualrays   Nonzeros   LP Iters   (pool size: [10000,10000])
  propagation      :       0.90        877        876          -       2771     1146.0         12     2493.2          -          -          -
  infeasible LP    :       0.07         13          3          -         22      792.3          0        0.0          0        0.0          0
  bound exceed. LP :       4.02        507        166          -       2744      910.6          0        0.0          0        0.0       1262
  strong branching :       0.00          0          0          -          0        0.0          0        0.0          -          -          0
  pseudo solution  :       0.00          0          0          -          0        0.0          0        0.0          -          -          -
  applied globally :       0.12          -          -          0       1481      127.5          -          -          0          -          -
  applied locally  :          -          -          -          0          0        0.0          -          -          0          -          -
Separators         :   ExecTime  SetupTime      Calls  RootCalls    Cutoffs    DomReds  FoundCuts ViaPoolAdd  DirectAdd    Applied ViaPoolApp  DirectApp      Conss
  cut pool         :       2.63          -       3392         73          -          -      50101      44428          -          -          -          -          -    (maximal pool size:       6872)
  aggregation      :      25.92       0.00       1364         42          0          0       6030       7833          0       1267       1267          0          0
  > cmir           :          -          -          -          -          -          -          -       7833          0       1267       1267          0          -
  > flowcover      :          -          -          -          -          -          -          -          0          0          0          0          0          -
  > knapsackcover  :          -          -          -          -          -          -          -          0          0          0          0          0          -
  cgmip            :       0.00       0.00          0          0          0          0          0          0          0          0          0          0          0
  clique           :       0.00       0.00         42         42          0          0          0          0          0          0          0          0          0
  closecuts        :       0.00       0.00          0          0          0          0          0          0          0          0          0          0          0
  convexproj       :       0.00       0.00          0          0          0          0          0          0          0          0          0          0          0
  disjunctive      :       0.00       0.00          0          0          0          0          0          0          0          0          0          0          0
  eccuts           :       0.00       0.00          0          0          0          0          0          0          0          0          0          0          0
  gauge            :       0.00       0.00          0          0          0          0          0          0          0          0          0          0          0
  gomory           :     167.81       0.00        816         20          0          0      42437      24703          0       1117       1117          0          0
  > gomorymi       :          -          -          -          -          -          -          -      11990          0        495        495          0          -
  > strongcg       :          -          -          -          -          -          -          -      12713          0        622        622          0          -
  impliedbounds    :       0.34       0.00       1364         42          0          0         57         58          0         23         23          0          0
  interminor       :       0.00       0.00          0          0          0          0          0          0          0          0          0          0          0
  intobj           :       0.00       0.00          0          0          0          0          0          0          0          0          0          0          0
  mcf              :       0.02       0.00          2          2          0          0          0          0          0          0          0          0          0
  minor            :       0.00       0.00          0          0          0          0          0          0          0          0          0          0          0
  mixing           :       0.00       0.00       1365         43          0          0          0          0          0          0          0          0          0
  oddcycle         :       0.00       0.00          0          0          0          0          0          0          0          0          0          0          0
  rapidlearning    :       0.00       0.00          0          0          0          0          0          0          0          0          0          0          0
  rlt              :       0.00       0.00         20         20          0          0          0          0          0          0          0          0          0
  zerohalf         :      35.50       0.00        827         31          0          0       1577      11834          0       5585       5585          0          0
Cutselectors       :   ExecTime  SetupTime      Calls  RootCalls   Selected     Forced   Filtered  RootSelec   RootForc   RootFilt 
  hybrid           :       2.48       0.00       6178         43     171705          0     905799       8798          0      50084
Pricers            :   ExecTime  SetupTime      Calls       Vars
  problem variables:       0.00          -          0          0
Branching Rules    :   ExecTime  SetupTime   BranchLP  BranchExt   BranchPS    Cutoffs    DomReds       Cuts      Conss   Children
  allfullstrong    :       0.00       0.00          0          0          0          0          0          0          0          0
  cloud            :       0.00       0.00          0          0          0          0          0          0          0          0
  distribution     :       0.00       0.00          0          0          0          0          0          0          0          0
  fullstrong       :       0.00       0.00          0          0          0          0          0          0          0          0
  inference        :       0.00       0.00          0          0          0          0          0          0          0          0
  leastinf         :       0.00       0.00          0          0          0          0          0          0          0          0
  lookahead        :       0.00       0.00          0          0          0          0          0          0          0          0
  mostinf          :       0.00       0.00          0          0          0          0          0          0          0          0
  multaggr         :       0.00       0.00          0          0          0          0          0          0          0          0
  nodereopt        :       0.00       0.00          0          0          0          0          0          0          0          0
  pscost           :       0.00       0.00          0          0          0          0          0          0          0          0
  random           :       0.00       0.00          0          0          0          0          0          0          0          0
  relpscost        :     116.63       0.00       5975          0          0          0        906          0          0      11930
  vanillafullstrong:       0.00       0.00          0          0          0          0          0          0          0          0
Primal Heuristics  :   ExecTime  SetupTime      Calls      Found       Best
  LP solutions     :       0.00          -          -          0          0
  relax solutions  :       0.00          -          -          0          0
  pseudo solutions :       0.00          -          -          0          0
  strong branching :       0.00          -          -          0          0
  actconsdiving    :       0.00       0.00          0          0          0
  adaptivediving   :      35.86       0.00         50          1          1
  alns             :       0.65       0.00          6          0          0
  bound            :       0.00       0.00          0          0          0
  clique           :       0.10       0.00          1          0          0
  coefdiving       :       0.00       0.00          0          0          0
  completesol      :       0.00       0.00          0          0          0
  conflictdiving   :     156.61       0.00        384          0          0
  crossover        :       0.00       0.00          0          0          0
  dins             :       0.00       0.00          0          0          0
  distributiondivin:      98.68       0.00        119          0          0
  dps              :       0.00       0.00          0          0          0
  dualval          :       0.00       0.00          0          0          0
  farkasdiving     :       0.00       0.00          0          0          0
  feaspump         :      29.21       0.00          2          0          0
  fixandinfer      :       0.00       0.00          0          0          0
  fracdiving       :      81.33       0.00        194          2          2
  gins             :       0.04       0.00          0          0          0
  guideddiving     :      81.57       0.00        167          1          1
  indicator        :       0.01       0.00          0          0          0
  indicatordiving  :       0.00       0.00          0          0          0
  intdiving        :       0.00       0.00          0          0          0
  intshifting      :       9.55       0.00         29          0          0
  linesearchdiving :      82.26       0.00        213          1          1
  localbranching   :       0.00       0.00          0          0          0
  locks            :       0.03       0.00          1          0          0
  lpface           :       0.00       0.00          0          0          0
  mpec             :       0.00       0.00          0          0          0
  multistart       :       0.00       0.00          0          0          0
  mutation         :       0.00       0.00          0          0          0
  nlpdiving        :       0.00       0.00          0          0          0
  objpscostdiving  :     160.09       0.00          4          0          0
  octane           :       0.00       0.00          0          0          0
  ofins            :       0.00       0.00          0          0          0
  oneopt           :       0.06       0.00          7          0          0
  padm             :       0.00       0.00          0          0          0
  proximity        :       0.00       0.00          0          0          0
  pscostdiving     :      89.43       0.00         94          0          0
  randrounding     :       1.35       0.00        843          0          0
  rens             :       0.00       0.00          0          0          0
  reoptsols        :       0.00       0.00          0          0          0
  repair           :       0.00       0.00          0          0          0
  rins             :      19.85       0.00          5          0          0
  rootsoldiving    :     101.44       0.00         11          0          0
  rounding         :       3.18       0.00       1540          0          0
  shiftandpropagate:       0.00       0.00          0          0          0
  shifting         :      40.20       0.00       1107          2          0
  simplerounding   :       0.01       0.00          0          0          0
  subnlp           :       0.01       0.01          0          0          0
  trivial          :       0.01       0.00          2          3          2
  trivialnegation  :       0.00       0.00          0          0          0
  trustregion      :       0.00       0.00          0          0          0
  trysol           :       0.01       0.00          0          0          0
  twoopt           :       0.00       0.00          0          0          0
  undercover       :       0.82       0.00          1          1          0
  vbounds          :       0.00       0.00          0          0          0
  veclendiving     :      79.89       0.00        205          1          1
  zeroobj          :       0.00       0.00          0          0          0
  zirounding       :       5.45       0.00       1000          0          0
  other solutions  :          -          -          -          0          -
Expressions        :   #IntEval  IntEvalTi   #RevProp  RevPropTi    DomReds    Cutoffs  #Estimate  EstimTime  Branching  #Simplify SimplifyTi Simplified
  prod             :      65520       0.03       5040       0.02          0          0          0       0.00          0      35280       0.03      25200
  sum              :         16       0.01          8       0.00          1          0          0       0.00          0       2523       0.07          2
  var              :      10483       0.00          0       0.00          0          0          0       0.00          0      75603       0.00          0
LP                 :       Time      Calls Iterations  Iter/call   Iter/sec  Time-0-It Calls-0-It    ItLimit
  primal LP        :      19.23        758          0       0.00       0.00      19.23        758
  dual LP          :    2011.93      12165    3533941     290.72    1756.49       0.02          9
  lex dual LP      :       0.00          0          0       0.00          -
  barrier LP       :       0.00          0          0       0.00          -       0.00          0
  resolve instable :       0.00          0          0       0.00          -
  diving/probing LP:     936.08       3425    1941263     566.79    2073.83
  strong branching :     104.80        563     330859     587.67    3156.95          -          -        363
    (at root node) :          -         65      38358     590.12          -
  conflict analysis:       1.01        138       1262       9.14    1246.25
B&B Tree           :
  number of runs   :          2
  nodes            :        167 (166 internal, 1 leaves)
  feasible leaves  :          0
  infeas. leaves   :          0
  objective leaves :          0
  nodes (total)    :       5975 (5965 internal, 10 leaves)
  nodes left       :        167
  max depth        :         17
  max depth (total):         38
  backtracks       :         43 (25.7%)
  early backtracks :          0 (0.0%)
  nodes exc. ref.  :          0 (0.0%)
  delayed cutoffs  :          0
  repropagations   :          0 (0 domain reductions, 0 cutoffs)
  avg switch length:       2.93
  switching time   :      27.07
Root Node          :
  First LP value   : +2.16000000000000e+03
  First LP Iters   :          3 (15.40 Iter/sec)
  First LP Time    :       0.19
  Final Dual Bound : +1.29288541666667e+03
  Final Root Iters :       9211
  Root LP Estimate : -3.65534716716951e+03
Solution           :
  Solutions found  :         12 (8 improvements)
  First Solution   : -1.00000000000000e+05   (in run 1, after 0 nodes, 0.05 seconds, depth 0, found by <trivial>)
  Gap First Sol.   :   infinite
  Gap Last Sol.    :    6077.08 %
  Primal Bound     : +2.40000000000000e+01   (in run 1, after 979 nodes, 976.62 seconds, depth 20, found by <linesearchdiving>)
  Dual Bound       : +1.29288541666667e+03
  Gap              :    5287.02 %
Integrals          :      Total       Avg%
  primal-dual      :  354842.91      98.57
  primal-ref       :          -          - (not evaluated)
  dual-ref         :          -          - (not evaluated)
